12 40 6 10
2 17 19 9 11 7 16 1 4 4 9 12 14 6 6 8 7 13 18 4 7 9 15 18 12 17 7 1 15 15 6 19 1 5 5 5 14 19 15 11 
13.86 8.32 9.01 2.63 13.17 14.58 10.88 11.99 13.84 5.21 1.84 4.3 13.94 0.48 14.27 3.86 11.17 12.85 6.06 11.34 12.22 14.92 12.4 13.14 13.23 6.45 8.88 14.25 10.04 5.69 8.51 10.79 4.57 12.58 6.13 4.58 4.75 11.81 3.7 3.9 
2.02 12.1 10.18 2.87 5.18 10.12 12.35 14.52 5.41 5.36 8.88 3.29 12.77 3.42 13.23 11.07 8.93 10.46 1.72 2.71 10.75 9.69 15.79 13.22 8.88 12.79 1.38 0.89 1.47 14.18 5.9 10.11 4.33 10.38 1.43 1.73 5.1 9.81 14.06 9.89 
1.51 14.59 13.09 2.04 12.6 12.97 12.03 12.77 11.44 12.38 15.88 4.71 6.76 8.54 3.49 3.55 13.86 8.58 5.63 1.48 1.55 9.53 10.65 4.48 5.79 1.58 8.7 10.94 0.15 5.79 15.84 7.12 10.16 5.71 10.47 15.32 2.3 9 10.26 11.17 
6.76 9.2 4.32 5.58 5.06 10.88 12.02 12.76 5.98 3.47 3.56 2.78 1.4 13.45 10.13 7.05 8.38 1.09 15.2 0.48 5.7 6.82 4.6 6.96 1.15 6.69 14.53 2.59 11.14 14.31 8.98 2.85 11.23 13.33 15.48 2.52 0.1 10.91 11.96 2.04 
15.11 9.84 2.19 6.46 1.95 2.9 0.86 7.19 12.74 14.28 12.43 1.91 6.72 4.11 12.31 0.56 7.97 2.05 9.54 5.62 15.33 7.53 2.2 13.52 10.41 8.47 10.76 6.3 13.92 8.87 7.84 12.49 11.9 13.99 1.3 9.18 8 10.92 14.7 8.13 
7.93 11.66 14.21 1.2 0.98 8.4 5.05 6.38 3.65 13.35 2.53 1.54 6.64 8.67 12.2 10.3 4.9 14.12 5.4 15.25 13.08 10.52 5.14 6.01 4.69 4.47 15.49 2.16 9.74 0.37 1.63 11.61 13.15 14.07 12.61 4.39 15.97 10.39 3.89 7.68 
8 8 8 8 8 8 8 8 8 8 8 8 8 8 8 8 8 8 8 8 8 8 8 8 8 8 8 8 8 8 8 8 8 8 8 8 8 8 8 8 
1.57 6.27 5.83 0.58 12.68 13.05 12.11 9.61 9.1 4.93 10.03 13.16 5.77 3.42 2.5 5.34 9.76 14.9 0.69 3.61 3.59 5.87 10.95 15.88 15.62 4.51 2.33 1.52 15.13 12.13 10.22 9.14 4.43 5.65 14.91 10.95 3.55 2.68 15.2 3.52 
10.74 4.2 14.64 5.25 14.56 6.63 12.26 14.99 13.99 8.67 7.83 0.13 5.18 14.81 12 1.52 13.21 6.95 6.87 5.86 11.21 14.8 4.21 12.28 3.38 11.03 9.69 7.3 6.25 11.04 13.53 7.89 6.71 0.18 15.41 13.64 3.73 0.79 7.86 13.63 
0.47 2.71 5.8 2.05 0.13 9.35 6.52 6.9 15.93 2.73 10.04 13.12 7.74 12.54 1.4 4.36 15.7 12.73 2.67 5.7 5.58 9.06 6.4 5.38 2.27 5.63 3.14 10.09 12.78 7.96 0.06 9.94 5.03 6.38 14.3 3.99 9.91 11.36 8.54 3.8 
3.81 8.68 5.11 8.4 6.69 8.03 9.3 1.32 13.85 8.91 0.19 1.31 2.2 7.06 15.73 6.81 13.75 10.29 0.89 12.98 0.8 4.28 10.63 14.88 4.19 12.74 3.86 8.06 8.2 6.42 9.23 12.68 0.11 11.12 13.09 15.44 5.59 2.52 15.35 3.79 
3 14.56 15.87 11.31 5.12 2.8 7.22 9.38 1.62 13.5 15.87 8.62 0.3 8.31 9.17 3.44 15.28 10.89 8.35 7.53 13.3 2.64 9.7 6.71 3.26 5.59 6.93 1.64 12.44 4.17 7.09 15.76 11.85 9.61 4.13 12.08 6.61 9.26 15.26 14.85 
1 1 1 1 1 1 1 1 1 1 1 1 1 1 1 1 1 1 1 1 1 1 1 1 1 1 1 1 1 1 1 1 1 1 1 1 1 1 1 1 
1 1 1 1 1 1 1 1 1 1 1 1 1 1 1 1 1 1 1 1 1 1 1 1 1 1 1 1 1 1 1 1 1 1 1 1 1 1 1 1 
1 1 1 1 1 1 1 1 1 1 1 1 1 1 1 1 1 1 1 1 1 1 1 1 1 1 1 1 1 1 1 1 1 1 1 1 1 1 1 1 
1 1 1 1 1 1 1 1 1 1 1 1 1 1 1 1 1 1 1 1 1 1 1 1 1 1 1 1 1 1 1 1 1 1 1 1 1 1 1 1 
1 1 1 1 1 1 1 1 1 1 1 1 1 1 1 1 1 1 1 1 1 1 1 1 1 1 1 1 1 1 1 1 1 1 1 1 1 1 1 1 
1 1 1 1 1 1 1 1 1 1 1 1 1 1 1 1 1 1 1 1 1 1 1 1 1 1 1 1 1 1 1 1 1 1 1 1 1 1 1 1 
1 1 1 1 1 1 1 1 1 1 1 1 1 1 1 1 1 1 1 1 1 1 1 1 1 1 1 1 1 1 1 1 1 1 1 1 1 1 1 1 
1 1 1 1 1 1 1 1 1 1 1 1 1 1 1 1 1 1 1 1 1 1 1 1 1 1 1 1 1 1 1 1 1 1 1 1 1 1 1 1 
1 1 1 1 1 1 1 1 1 1 1 1 1 1 1 1 1 1 1 1 1 1 1 1 1 1 1 1 1 1 1 1 1 1 1 1 1 1 1 1 
1 1 1 1 1 1 1 1 1 1 1 1 1 1 1 1 1 1 1 1 1 1 1 1 1 1 1 1 1 1 1 1 1 1 1 1 1 1 1 1 
1 1 1 1 1 1 1 1 1 1 1 1 1 1 1 1 1 1 1 1 1 1 1 1 1 1 1 1 1 1 1 1 1 1 1 1 1 1 1 1 
1 1 1 1 1 1 1 1 1 1 1 1 1 1 1 1 1 1 1 1 1 1 1 1 1 1 1 1 1 1 1 1 1 1 1 1 1 1 1 1 
0.01 0.01 0.01 0.01 0.01 0.01 0.01 0.01 0.01 0.01 0.01 0.01 0.01 0.01 0.01 0.01 0.01 0.01 0.01 0.01 0.01 0.01 0.01 0.01 0.01 0.01 0.01 0.01 0.01 0.01 0.01 0.01 0.01 0.01 0.01 0.01 0.01 0.01 0.01 0.01 
0.02 0.02 0.02 0.02 0.02 0.02 0.02 0.02 0.02 0.02 0.02 0.02 0.02 0.02 0.02 0.02 0.02 0.02 0.02 0.02 0.02 0.02 0.02 0.02 0.02 0.02 0.02 0.02 0.02 0.02 0.02 0.02 0.02 0.02 0.02 0.02 0.02 0.02 0.02 0.02 
0.03 0.03 0.03 0.03 0.03 0.03 0.03 0.03 0.03 0.03 0.03 0.03 0.03 0.03 0.03 0.03 0.03 0.03 0.03 0.03 0.03 0.03 0.03 0.03 0.03 0.03 0.03 0.03 0.03 0.03 0.03 0.03 0.03 0.03 0.03 0.03 0.03 0.03 0.03 0.03 
0.04 0.04 0.04 0.04 0.04 0.04 0.04 0.04 0.04 0.04 0.04 0.04 0.04 0.04 0.04 0.04 0.04 0.04 0.04 0.04 0.04 0.04 0.04 0.04 0.04 0.04 0.04 0.04 0.04 0.04 0.04 0.04 0.04 0.04 0.04 0.04 0.04 0.04 0.04 0.04 
0.05 0.05 0.05 0.05 0.05 0.05 0.05 0.05 0.05 0.05 0.05 0.05 0.05 0.05 0.05 0.05 0.05 0.05 0.05 0.05 0.05 0.05 0.05 0.05 0.05 0.05 0.05 0.05 0.05 0.05 0.05 0.05 0.05 0.05 0.05 0.05 0.05 0.05 0.05 0.05 
0.06 0.06 0.06 0.06 0.06 0.06 0.06 0.06 0.06 0.06 0.06 0.06 0.06 0.06 0.06 0.06 0.06 0.06 0.06 0.06 0.06 0.06 0.06 0.06 0.06 0.06 0.06 0.06 0.06 0.06 0.06 0.06 0.06 0.06 0.06 0.06 0.06 0.06 0.06 0.06 
0.07 0.07 0.07 0.07 0.07 0.07 0.07 0.07 0.07 0.07 0.07 0.07 0.07 0.07 0.07 0.07 0.07 0.07 0.07 0.07 0.07 0.07 0.07 0.07 0.07 0.07 0.07 0.07 0.07 0.07 0.07 0.07 0.07 0.07 0.07 0.07 0.07 0.07 0.07 0.07 
0.2 0.2 0.2 0.2 0.2 0.2 0.2 0.2 0.2 0.2 0.2 0.2 0.2 0.2 0.2 0.2 0.2 0.2 0.2 0.2 0.2 0.2 0.2 0.2 0.2 0.2 0.2 0.2 0.2 0.2 0.2 0.2 0.2 0.2 0.2 0.2 0.2 0.2 0.2 0.2 
0.4 0.4 0.4 0.4 0.4 0.4 0.4 0.4 0.4 0.4 0.4 0.4 0.4 0.4 0.4 0.4 0.4 0.4 0.4 0.4 0.4 0.4 0.4 0.4 0.4 0.4 0.4 0.4 0.4 0.4 0.4 0.4 0.4 0.4 0.4 0.4 0.4 0.4 0.4 0.4 
0.6 0.6 0.6 0.6 0.6 0.6 0.6 0.6 0.6 0.6 0.6 0.6 0.6 0.6 0.6 0.6 0.6 0.6 0.6 0.6 0.6 0.6 0.6 0.6 0.6 0.6 0.6 0.6 0.6 0.6 0.6 0.6 0.6 0.6 0.6 0.6 0.6 0.6 0.6 0.6 
0.8 0.8 0.8 0.8 0.8 0.8 0.8 0.8 0.8 0.8 0.8 0.8 0.8 0.8 0.8 0.8 0.8 0.8 0.8 0.8 0.8 0.8 0.8 0.8 0.8 0.8 0.8 0.8 0.8 0.8 0.8 0.8 0.8 0.8 0.8 0.8 0.8 0.8 0.8 0.8 
1 1 1 1 1 1 1 1 1 1 1 1 1 1 1 1 1 1 1 1 1 1 1 1 1 1 1 1 1 1 1 1 1 1 1 1 1 1 1 1 
